4 
5  14 29 44 59 
6  14 29 44 59 
7  14 29 44 59 
8  14 29 44 59 
9  14 29 43 58 
10  13 28 43 58 
11  13 28 43 58 
12  13 28 43 57 
13  13 28 43 58 
14  13 28 43 
15  00 15 30 45 
16  00 15 30 45 
17  00 15 30 45 
18  00 15 30 45 
19  00 14 29 44 59 
20  14 29 44 59 
21  14 29 44 59 
22  16 31 46 
23  04 
0 
